NAME: ACTUAL_TOURS/amz2797
TYPE: TOUR
COMMENT: RouteID_9b1e4954-851d-4aa0-bfca-e3e38b46d1f9
DIMENSION: 150
TOUR_SECTION
78
114
82
150
147
60
64
119
137
21
5
26
75
105
93
130
8
40
25
115
28
131
6
102
29
1
71
43
54
62
83
123
98
11
16
52
125
90
27
139
51
91
2
77
85
148
34
108
36
118
138
14
106
10
72
42
141
70
9
66
59
57
55
113
103
53
31
144
126
87
30
127
23
99
58
132
88
110
92
143
4
145
22
39
149
74
96
18
47
111
48
37
101
120
109
38
100
15
56
68
13
112
65
136
63
117
84
7
49
17
24
95
86
135
61
20
67
73
46
44
122
94
129
80
121
79
134
3
107
32
128
76
69
12
81
124
116
19
104
50
140
45
97
35
41
146
33
89
133
142
-1
EOF
